%%% static parameters %%%
timespan = 1;
Fact = [4];
Distr1 = [15];
Distr2 = [30];
Clients_N = [300];
Demand_W = [15];
Lt0 = [4];
Lt1 = [4];
SS_ = [0.85];
DS_D = [8];
K = [200];
MA = [500];
%%% dynamic parameters %%%
lost_ratio_sales_ret_th = 0.11104625251348355;
lost_ratio_sales_ret_w = 68;
lost_ratio_sales_dis_th = 0.7695270276256485;
lost_ratio_sales_dis_w = 89;
lost_ratio_sales_fac_th = 0.9308792391032483;
lost_ratio_sales_fac_w = 1;
stock_customer_MA_mean_relative_th = 0.8763353854709107;
stock_customer_MA_mean_relative_w = 6;
stock_distributor_MA_mean_relative_th = 0.23051810472813372;
stock_distributor_MA_mean_relative_w = 25;
stock_retailer_MA_mean_relative_th = 0.09745757712346304;
stock_retailer_MA_mean_relative_w = 76;
stock_factory_MA_mean_relative_th = 0.5364246307085573;
stock_factory_MA_mean_relative_w = 3;
